90 94 90 85 95 90 95 91 86 87 87 88 92 89 92 88 89 89 90 88 
78 81 77 85 85 79 85 87 80 84 82 85 79 84 80 87 84 86 78 83 
87 89 89 89 87 88 87 88 88 88 88 87 89 87 89 88 87 88 89 89 
90 88 90 88 88 86 90 86 88 85 85 89 86 87 85 86 85 91 91 90 
82 85 80 85 84 79 79 83 81 82 84 82 82 85 80 85 79 82 80 85 
84 84 84 84 85 82 85 81 85 84 81 83 81 81 81 81 81 81 81 84 
81 83 83 81 81 81 83 82 81 81 82 82 83 83 82 82 81 83 83 82 
93 83 89 92 92 88 93 92 91 91 89 93 93 84 87 88 84 86 87 88 
82 81 81 84 80 83 84 81 82 79 84 82 83 81 82 81 84 78 79 80 
82 82 80 80 83 81 84 82 83 80 82 81 81 84 81 80 82 80 84 82 
87 87 88 87 86 88 87 88 88 88 86 88 88 88 86 86 88 88 86 87 
94 95 92 88 91 95 94 87 93 95 88 89 90 94 91 87 88 90 90 95 
87 86 86 82 83 81 87 87 83 85 82 81 81 86 84 87 87 86 84 83 
84 85 84 85 86 85 86 86 86 86 86 86 86 84 84 84 85 84 86 84 
92 90 90 92 92 91 92 90 92 92 92 92 90 91 90 92 91 90 90 91 
84 87 85 82 85 84 85 81 87 83 83 82 82 81 85 86 84 86 87 86 
80 82 82 80 82 80 82 82 80 82 81 82 80 81 81 80 82 82 81 80 
84 81 84 86 86 81 87 81 79 80 85 83 80 81 79 83 86 81 79 86 
84 86 84 85 84 84 85 85 84 84 86 84 85 85 85 86 86 86 84 84 
85 83 82 81 82 83 83 84 81 84 81 83 81 81 83 81 85 84 84 83 